feasible solution found by trivial heuristic after 2.1 seconds, objective value -8.906008e+07
presolving:
(round 1, fast)       265543 del vars, 265543 del conss, 0 add conss, 0 chg bounds, 0 chg sides, 0 chg coeffs, 0 upgd conss, 0 impls, 2962 clqs
   (6.4s) running MILP presolver
   (6.8s) MILP presolver (2 rounds): 0 aggregations, 2790 fixings, 0 bound changes
(round 2, medium)     268333 del vars, 274085 del conss, 5752 add conss, 0 chg bounds, 0 chg sides, 0 chg coeffs, 0 upgd conss, 0 impls, 2962 clqs
(round 3, exhaustive) 268333 del vars, 274234 del conss, 5752 add conss, 0 chg bounds, 0 chg sides, 0 chg coeffs, 0 upgd conss, 0 impls, 5603 clqs
(round 4, exhaustive) 268333 del vars, 274234 del conss, 5752 add conss, 0 chg bounds, 0 chg sides, 0 chg coeffs, 5603 upgd conss, 0 impls, 5603 clqs
   (7.1s) probing: 51/168 (30.4%) - 0 fixings, 0 aggregations, 0 implications, 0 bound changes
   (7.1s) probing aborted: 50/50 successive totally useless probings
   (7.2s) symmetry computation started: requiring (bin +, int -, cont +), (fixed: bin -, int +, cont -)
   (7.2s) no symmetry present
presolving (5 rounds: 5 fast, 4 medium, 3 exhaustive):
 268333 deleted vars, 274234 deleted constraints, 5752 added constraints, 0 tightened bounds, 0 added holes, 0 changed sides, 0 changed coefficients
 0 implications, 5603 cliques
presolved problem has 168 variables (168 bin, 0 int, 0 impl, 0 cont) and 5603 constraints
   5603 constraints of type <setppc>
Presolving Time: 5.74

 time | node  | left  |LP iter|LP it/n|mem/heur|mdpt |vars |cons |rows |cuts |sepa|confs|strbr|  dualbound   | primalbound  |  gap   | compl. 
t 7.3s|     1 |     0 |     0 |     - | trivial|   0 | 168 |5603 |   0 |   0 |  0 |   0 |   0 |-8.762147e+07 |-8.906008e+07 |   1.64%| unknown
p 7.3s|     1 |     0 |     0 |     - |  clique|   0 | 168 |5603 |5603 |   0 |  0 |   0 |   0 |-8.762147e+07 |-8.883848e+07 |   1.39%| unknown
  7.7s|     1 |     0 |   991 |     - |   818M |   0 | 168 |5603 |5603 |   0 |  0 |   0 |   0 |-8.869844e+07 |-8.883848e+07 |   0.16%| unknown
  7.8s|     1 |     0 |  1092 |     - |   820M |   0 | 168 |5603 |5604 |   1 |  1 |   0 |   0 |-8.869950e+07 |-8.883848e+07 |   0.16%| unknown
  7.9s|     1 |     0 |  1246 |     - |   821M |   0 | 168 |5603 |5605 |   2 |  2 |   0 |   0 |-8.870047e+07 |-8.883848e+07 |   0.16%| unknown
  8.0s|     1 |     0 |  1377 |     - |   825M |   0 | 168 |5603 |5606 |   3 |  3 |   0 |   0 |-8.870078e+07 |-8.883848e+07 |   0.16%| unknown
  8.2s|     1 |     0 |  1476 |     - |   825M |   0 | 168 |5603 |5607 |   4 |  4 |   0 |   0 |-8.870092e+07 |-8.883848e+07 |   0.16%| unknown
  8.3s|     1 |     0 |  1589 |     - |   827M |   0 | 168 |5603 |5608 |   5 |  5 |   0 |   0 |-8.870105e+07 |-8.883848e+07 |   0.15%| unknown
  8.4s|     1 |     0 |  1729 |     - |   829M |   0 | 168 |5603 |5609 |   6 |  6 |   0 |   0 |-8.870117e+07 |-8.883848e+07 |   0.15%| unknown
  8.6s|     1 |     0 |  1815 |     - |   830M |   0 | 168 |5603 |5610 |   7 |  7 |   0 |   0 |-8.870125e+07 |-8.883848e+07 |   0.15%| unknown
  8.7s|     1 |     0 |  1945 |     - |   832M |   0 | 168 |5603 |5611 |   8 |  8 |   0 |   0 |-8.870131e+07 |-8.883848e+07 |   0.15%| unknown
  8.8s|     1 |     0 |  2064 |     - |   834M |   0 | 168 |5603 |5612 |   9 |  9 |   0 |   0 |-8.870133e+07 |-8.883848e+07 |   0.15%| unknown
  9.0s|     1 |     0 |  2208 |     - |   835M |   0 | 168 |5603 |5614 |  11 | 10 |   0 |   0 |-8.870139e+07 |-8.883848e+07 |   0.15%| unknown
  9.1s|     1 |     0 |  2286 |     - |   836M |   0 | 168 |5603 |5616 |  13 | 11 |   0 |   0 |-8.870142e+07 |-8.883848e+07 |   0.15%| unknown
  9.2s|     1 |     0 |  2326 |     - |   836M |   0 | 168 |5603 |5617 |  14 | 12 |   0 |   0 |-8.870143e+07 |-8.883848e+07 |   0.15%| unknown
 time | node  | left  |LP iter|LP it/n|mem/heur|mdpt |vars |cons |rows |cuts |sepa|confs|strbr|  dualbound   | primalbound  |  gap   | compl. 
  9.2s|     1 |     0 |  2428 |     - |   837M |   0 | 168 |5603 |5618 |  15 | 13 |   0 |   0 |-8.870154e+07 |-8.883848e+07 |   0.15%| unknown
  9.3s|     1 |     0 |  2483 |     - |   838M |   0 | 168 |5603 |5620 |  17 | 14 |   0 |   0 |-8.870161e+07 |-8.883848e+07 |   0.15%| unknown
  9.4s|     1 |     0 |  2512 |     - |   838M |   0 | 168 |5603 |5621 |  18 | 15 |   0 |   0 |-8.870163e+07 |-8.883848e+07 |   0.15%| unknown
  9.5s|     1 |     0 |  2545 |     - |   839M |   0 | 168 |5603 |5622 |  19 | 16 |   0 |   0 |-8.870165e+07 |-8.883848e+07 |   0.15%| unknown
  9.5s|     1 |     0 |  2610 |     - |   839M |   0 | 168 |5603 |5623 |  20 | 17 |   0 |   0 |-8.870185e+07 |-8.883848e+07 |   0.15%| unknown
d 9.9s|     1 |     0 |  3726 |     - |farkasdi|   0 | 168 |5603 |5623 |   0 | 19 |   0 |   0 |-8.870185e+07 |-8.881341e+07 |   0.13%| unknown
  9.9s|     1 |     0 |  3726 |     - |   840M |   0 | 168 |5603 |5623 |  20 | 19 |   0 |   0 |-8.870185e+07 |-8.881341e+07 |   0.13%| unknown
 14.1s|     1 |     2 |  3726 |     - |   840M |   0 | 168 |5603 |5623 |  20 | 21 |   0 |  24 |-8.870648e+07 |-8.881341e+07 |   0.12%| unknown
*30.0s|    13 |     4 |  7740 | 430.5 |strongbr|   5 | 168 |5611 |5616 |  20 |  1 |   8 | 273 |-8.870947e+07 |-8.880217e+07 |   0.10%|  12.27%
*36.1s|    23 |     8 |  9398 | 310.2 |    LP  |   7 | 168 |5621 |5616 |  20 |  1 |  26 | 406 |-8.870947e+07 |-8.879683e+07 |   0.10%|  19.34%
*36.2s|    24 |     7 |  9406 | 297.0 |    LP  |   7 | 168 |5621 |5616 |  20 |  1 |  26 | 406 |-8.870947e+07 |-8.879528e+07 |   0.10%|  19.62%
 41.2s|   100 |     9 | 17458 | 150.3 |   844M |  13 | 168 |5626 |5619 |  38 |  0 |  31 | 427 |-8.871381e+07 |-8.879528e+07 |   0.09%|  32.42%
 50.7s|   200 |     7 | 30042 | 138.0 |   853M |  17 | 168 |5645 |5627 |  99 |  0 |  50 | 490 |-8.871730e+07 |-8.879528e+07 |   0.09%|  50.05%
*55.2s|   267 |    10 | 37604 | 131.7 |    LP  |  18 | 168 |5653 |5625 | 139 |  1 |  58 | 507 |-8.872096e+07 |-8.879510e+07 |   0.08%|  51.65%
*55.2s|   268 |     9 | 37612 | 131.2 |    LP  |  18 | 168 |5653 |5625 | 139 |  1 |  58 | 507 |-8.872096e+07 |-8.879495e+07 |   0.08%|  51.65%
 time | node  | left  |LP iter|LP it/n|mem/heur|mdpt |vars |cons |rows |cuts |sepa|confs|strbr|  dualbound   | primalbound  |  gap   | compl. 
 55.7s|   300 |    11 | 38783 | 121.1 |   856M |  18 | 168 |5653 |5625 | 139 |  1 |  58 | 514 |-8.872096e+07 |-8.879495e+07 |   0.08%|  54.05%
*62.4s|   398 |    11 | 49652 | 118.6 |    LP  |  24 | 168 |5656 |5626 | 179 |  1 |  65 | 551 |-8.872836e+07 |-8.879445e+07 |   0.07%|  60.96%
 62.4s|   400 |    11 | 49684 | 118.1 |   858M |  24 | 168 |5656 |5626 | 179 |  0 |  65 | 551 |-8.872836e+07 |-8.879445e+07 |   0.07%|  61.15%
 66.8s|   500 |     9 | 58087 | 111.2 |   858M |  24 | 168 |5656 |5626 | 197 |  0 |  65 | 559 |-8.873690e+07 |-8.879445e+07 |   0.06%|  65.72%
 74.0s|   600 |    11 | 67573 | 108.5 |   858M |  24 | 168 |5664 |5624 | 234 |  0 |  73 | 581 |-8.873737e+07 |-8.879445e+07 |   0.06%|  71.18%
 77.4s|   700 |    11 | 77280 | 106.9 |   859M |  24 | 168 |5668 |5627 | 250 |  1 |  77 | 592 |-8.873959e+07 |-8.879445e+07 |   0.06%|  73.25%
 80.5s|   800 |    17 | 85970 | 104.4 |   859M |  25 | 168 |5671 |5617 | 255 |  1 |  80 | 599 |-8.874165e+07 |-8.879445e+07 |   0.06%|  77.93%
*81.5s|   819 |    11 | 87870 | 104.3 |    LP  |  25 | 168 |5653 |5617 | 265 |  1 |  80 | 599 |-8.874165e+07 |-8.878494e+07 |   0.05%|  79.39%
 85.1s|   900 |    12 | 97390 | 105.5 |   859M |  25 | 168 |5654 |5631 | 279 |  0 |  81 | 601 |-8.875799e+07 |-8.878494e+07 |   0.03%|  88.55%

SCIP Status        : problem is solved [optimal solution found]
Solving Time (sec) : 87.15
Solving Nodes      : 980
Primal Bound       : -8.87849410076811e+07 (354 solutions)
Dual Bound         : -8.87849410076811e+07
Gap                : 0.00 %
Solve Status: optimal
Solve Time: 93.84 seconds
